2	18	1	8	29	100	0	0	0	0	0	0
1400	1	0	0	0	0	0	0	0	0	0	0
1400	1	0	0	0	0	0	0	0	0	0	0
175	1	0	118.12	2.29	1	0	0	0	0	0	0
175	1	0	118.12	2.29	1	0	0	0	0	0	0
175	1	0	118.12	2.29	1	0	0	0	0	0	0
175	1	0	118.12	2.29	1	0	0	0	0	0	0
175	1	0	118.12	2.29	1	0	0	0	0	0	0
175	1	0	118.12	2.29	1	0	0	0	0	0	0
175	1	0	118.12	2.29	1	0	0	0	0	0	0
175	1	0	118.12	2.29	1	0	0	0	0	0	0
175	1	0	118.12	2.29	1	0	0	0	0	0	0
175	1	0	118.12	2.29	1	0	0	0	0	0	0
175	1	0	118.12	2.29	1	0	0	0	0	0	0
175	1	0	118.12	2.29	1	0	0	0	0	0	0
175	1	0	118.12	2.29	1	0	0	0	0	0	0
175	1	0	118.12	2.29	1	0	0	0	0	0	0
175	1	0	118.12	2.29	1	0	0	0	0	0	0
175	1	0	118.12	2.29	1	0	0	0	0	0	0
175	1	0	118.12	2.29	1	0	0	0	0	0	0
175	1	0	118.12	2.29	1	0	0	0	0	0	0
50	150	0	0	0	0	3390	0	0	99999	0	0
25	25	0	0	0	0	3390	0	0	99999	0	0
50	25	0	0	0	0	3390	0	0	99999	0	0
75	25	0	0	0	0	3390	0	0	99999	0	0
25	50	0	0	0	0	3390	0	0	99999	0	0
75	50	0	0	0	0	3390	0	0	99999	0	0
25	75	0	0	0	0	3390	0	0	99999	0	0
50	75	0	0	0	0	3390	0	0	99999	0	0
75	75	0	0	0	0	3390	0	0	99999	0	0
25	25	0	0	0	0	3390	0	0	0	0	0
50	25	0	0	0	0	3390	0	0	0	0	0
75	25	0	0	0	0	3390	0	0	0	0	0
25	50	0	0	0	0	3390	0	0	0	0	0
75	50	0	0	0	0	3390	0	0	0	0	0
25	75	0	0	0	0	3390	0	0	0	0	0
50	75	0	0	0	0	3390	0	0	0	0	0
75	75	0	0	0	0	3390	0	0	0	0	0
40      50      0       0       0       0       1236    0       0       0       0       0
73      52      0       0       0       0       1236    0       0       0       0       0
90      55      0       0       0       0       1236    0       0       0       0       0
55      79      0       0       0       0       1236    0       0       0       0       0
69      89      0       0       0       0       1236    0       0       0       0       0
32      80      0       0       0       0       1236    0       0       0       0       0
39      96      0       0       0       0       1236    0       0       0       0       0
23      80      0       0       0       0       1236    0       0       0       0       0
4	83	0	0	0	0	3390	0	0	0	0	0
18	58	0	0	0	0	3390	0	0	0	0	0
1	56	0	0	0	0	3390	0	0	0	0	0
13	31	0	0	0	0	3390	0	0	0	0	0
-5	38	0	0	0	0	3390	0	0	0	0	0
26	37	0	0	0	0	3390	0	0	0	0	0
28	13	0	0	0	0	3390	0	0	0	0	0
39	31	0	0	0	0	3390	0	0	0	0	0
48	11	0	0	0	0	3390	0	0	0	0	0
59	17	0	0	0	0	3390	0	0	0	0	0
73	23	0	0	0	0	3390	0	0	0	0	0
74	32	0	0	0	0	3390	0	0	0	0	0
90	44	0	0	0	0	3390	0	0	0	0	0
52	75	10	7	3	101	3373	90	0	0	0	0
45	70	30	19	11	101	3380	90	0	0	0	0
62	69	10	9	1	101	3371	90	0	0	0	0
60	66	10	9	1	101	3375	90	0	0	0	0
42	65	10	6	4	101	3385	90	0	0	0	0
16	42	20	8	12	2645	2805	90	0	0	0	0
58	70	20	17	3	101	3374	90	0	0	0	0
34	60	20	11	9	113	273	90	0	0	0	0
28	70	10	4	6	101	3377	90	0	0	0	0
35	66	10	5	5	129	289	90	0	0	0	0
35	69	10	5	5	101	3381	90	0	0	0	0
25	85	20	6	14	101	3362	90	0	0	0	0
22	75	30	9	21	101	3370	90	0	0	0	0
22	85	10	3	7	702	862	90	0	0	0	0
20	80	40	10	30	512	672	90	0	0	0	0
20	85	40	9	31	794	954	90	0	0	0	0
18	75	20	5	15	101	3367	90	0	0	0	0
15	75	20	4	16	986	1146	90	0	0	0	0
15	80	10	2	8	101	3361	90	0	0	0	0
30	50	10	6	4	101	3391	90	0	0	0	0
30	56	20	11	9	3229	3389	90	0	0	0	0
28	52	20	11	9	101	3388	90	0	0	0	0
14	66	10	2	8	101	3370	90	0	0	0	0
25	50	10	5	5	101	3386	90	0	0	0	0
22	66	40	13	27	101	3376	90	0	0	0	0
8	62	10	1	9	101	3366	90	0	0	0	0
23	52	10	4	6	2933	3093	90	0	0	0	0
4	55	20	1	19	101	3364	90	0	0	0	0
20	50	10	4	6	2743	2903	90	0	0	0	0
20	55	10	4	6	101	3380	90	0	0	0	0
10	35	20	6	14	2361	2521	90	0	0	0	0
10	40	30	8	22	2548	2708	90	0	0	0	0
8	40	40	8	32	101	3367	90	0	0	0	0
8	45	20	4	16	101	3368	90	0	0	0	0
5	35	10	1	9	101	3362	90	0	0	0	0
5	45	10	1	9	101	3365	90	0	0	0	0
2	40	20	1	19	101	3361	90	0	0	0	0
0	40	30	0	30	2078	2238	90	0	0	0	0
0	45	20	0	20	1983	2143	90	0	0	0	0
36	18	10	5	5	1069	1229	90	0	0	0	0
35	32	10	9	1	101	3382	90	0	0	0	0
33	32	20	19	1	101	3381	90	0	0	0	0
33	35	10	9	1	101	3384	90	0	0	0	0
32	20	10	6	4	101	3369	90	0	0	0	0
30	30	10	10	0	101	3378	90	0	0	0	0
34	25	30	22	8	101	3375	90	0	0	0	0
30	35	10	9	1	101	3382	90	0	0	0	0
36	40	10	9	1	101	3390	90	0	0	0	0
48	20	10	4	6	101	3369	90	0	0	0	0
26	32	10	8	2	101	3378	90	0	0	0	0
25	30	10	8	2	101	3376	90	0	0	0	0
25	35	10	7	3	503	663	90	0	0	0	0
44	5	20	2	18	101	3355	90	0	0	0	0
42	10	40	10	30	101	3360	90	0	0	0	0
42	15	10	4	6	101	3365	90	0	0	0	0
40	5	30	4	26	101	3356	90	0	0	0	0
38	15	40	16	24	101	3365	90	0	0	0	0
38	5	30	4	26	101	3355	90	0	0	0	0
38	10	10	3	7	101	3360	90	0	0	0	0
35	5	20	3	17	101	3355	90	0	0	0	0
50	30	10	6	4	101	3378	90	0	0	0	0
50	35	20	14	6	101	3382	90	0	0	0	0
50	40	50	40	10	101	3386	90	0	0	0	0
48	30	10	6	4	101	3379	90	0	0	0	0
44	25	10	6	4	101	3375	90	0	0	0	0
47	35	10	7	3	101	3384	90	0	0	0	0
47	40	10	9	1	101	3388	90	0	0	0	0
42	30	10	7	3	101	3380	90	0	0	0	0
45	35	10	8	2	101	3385	90	0	0	0	0
95	30	30	9	21	101	3342	90	0	0	0	0
95	35	20	7	13	101	3343	90	0	0	0	0
53	30	10	6	4	2533	2693	90	0	0	0	0
92	30	10	3	7	101	3345	90	0	0	0	0
53	35	50	33	17	101	3381	90	0	0	0	0
45	65	20	14	6	101	3385	90	0	0	0	0
90	35	10	4	6	101	3348	90	0	0	0	0
72	45	10	6	4	101	3368	90	0	0	0	0
78	40	20	10	10	101	3361	90	0	0	0	0
87	30	10	3	7	1423	1583	90	0	0	0	0
85	25	10	3	7	1328	1488	90	0	0	0	0
85	35	30	12	18	1518	1678	90	0	0	0	0
75	55	20	15	5	609	769	90	0	0	0	0
72	55	10	8	2	516	676	90	0	0	0	0
70	58	20	17	3	101	3369	90	0	0	0	0
86	46	30	16	14	101	3354	90	0	0	0	0
66	55	10	8	2	327	487	90	0	0	0	0
64	46	20	14	6	101	3376	90	0	0	0	0
65	60	30	28	2	101	3374	90	0	0	0	0
56	64	10	9	1	101	3379	90	0	0	0	0
60	55	10	9	1	101	3380	90	0	0	0	0
60	60	10	10	0	101	3378	90	0	0	0	0
67	85	20	16	4	704	864	90	0	0	0	0
42	58	40	29	11	101	3392	90	0	0	0	0
65	82	10	8	2	101	3360	90	0	0	0	0
62	80	30	23	7	101	3363	90	0	0	0	0
62	40	10	6	4	1909	2069	90	0	0	0	0
60	85	30	21	9	101	3360	90	0	0	0	0
58	75	20	15	5	101	3370	90	0	0	0	0
55	80	10	7	3	101	3367	90	0	0	0	0
55	85	20	13	7	101	3362	90	0	0	0	0
